(set-logic ALL)
(declare-fun var0 () String)
(assert (str.in_re var0 (re.++ (re.union (re.+ (str.to_re "000")) (re.+ (str.to_re "1"))) (re.++ (re.+ (re.* (str.to_re "222"))) (re.++ (re.union (re.union (str.to_re "33") (str.to_re "444")) (re.union (str.to_re "5") (str.to_re "6"))) (re.++ (re.union (re.* (str.to_re "777")) (re.* (str.to_re "8"))) (re.++ (re.* (re.+ (str.to_re "999"))) (re.++ (re.union (re.union (str.to_re "aa") (str.to_re "b")) (re.union (str.to_re "ccc") (str.to_re "dd"))) (re.++ (re.union (re.union (str.to_re "e") (str.to_re "f")) (re.union (str.to_re "ggg") (str.to_re "h"))) (re.++ (re.* (re.+ (str.to_re "i"))) (re.++ (re.+ (re.union (str.to_re "jj") (str.to_re "kkk"))) (re.++ (re.union (re.union (str.to_re "lll") (str.to_re "mm")) (re.union (str.to_re "n") (str.to_re "oo"))) (re.++ (re.* (re.union (str.to_re "ppp") (str.to_re "q"))) (re.++ (re.union (re.union (str.to_re "rrr") (str.to_re "s")) (re.union (str.to_re "tt") (str.to_re "uu"))) (re.++ (re.+ (re.+ (str.to_re "vv"))) (re.++ (re.* (re.+ (str.to_re "www"))) (re.++ (re.union (re.+ (str.to_re "xx")) (re.+ (str.to_re "yy"))) (re.++ (re.+ (re.union (str.to_re "z") (str.to_re "A"))) (re.++ (re.union (re.* (str.to_re "BB")) (re.* (str.to_re "CCC"))) (re.++ (re.+ (re.union (str.to_re "D") (str.to_re "EEE"))) (re.++ (re.+ (re.union (str.to_re "F") (str.to_re "G"))) (re.++ (re.* (re.* (str.to_re "H"))) (re.++ (re.* (re.+ (str.to_re "III"))) (re.++ (re.union (re.union (str.to_re "JJ") (str.to_re "KK")) (re.union (str.to_re "L") (str.to_re "M"))) (re.++ (re.+ (re.* (str.to_re "N"))) (re.++ (re.* (re.union (str.to_re "O") (str.to_re "PP"))) (re.++ (re.* (re.union (str.to_re "QQ") (str.to_re "R"))) (re.++ (re.* (re.union (str.to_re "SS") (str.to_re "TTT"))) (re.++ (re.+ (re.* (str.to_re "U"))) (re.++ (re.* (re.* (str.to_re "VV"))) (re.++ (re.* (re.+ (str.to_re "WW"))) (re.++ (re.union (re.* (str.to_re "X")) (re.* (str.to_re "YYY"))) (re.++ (re.union (re.+ (str.to_re "ZZZ")) (re.+ (str.to_re "!!!"))) (re.++ (re.* (re.* (str.to_re """"""""))) (re.++ (re.union (re.* (str.to_re "###")) (re.* (str.to_re "$$"))) (re.++ (re.+ (re.* (str.to_re "%%%"))) (re.++ (re.+ (re.+ (str.to_re "&&"))) (re.* (re.union (str.to_re "'''") (str.to_re "((("))))))))))))))))))))))))))))))))))))))))
(assert (not (str.in_re var0 (re.++ (re.union (re.* (str.to_re "00")) (re.* (str.to_re "111"))) (re.++ (re.union (re.* (str.to_re "222")) (re.* (str.to_re "33"))) (re.++ (re.+ (re.* (str.to_re "444"))) (re.++ (re.* (re.union (str.to_re "555") (str.to_re "66"))) (re.++ (re.* (re.* (str.to_re "777"))) (re.++ (re.* (re.* (str.to_re "8"))) (re.++ (re.* (re.* (str.to_re "999"))) (re.++ (re.* (re.+ (str.to_re "a"))) (re.++ (re.* (re.union (str.to_re "bbb") (str.to_re "ccc"))) (re.++ (re.+ (re.+ (str.to_re "ddd"))) (re.++ (re.* (re.+ (str.to_re "eee"))) (re.++ (re.+ (re.* (str.to_re "fff"))) (re.++ (re.* (re.+ (str.to_re "gg"))) (re.++ (re.* (re.union (str.to_re "hhh") (str.to_re "i"))) (re.++ (re.union (re.* (str.to_re "j")) (re.* (str.to_re "kk"))) (re.++ (re.union (re.+ (str.to_re "l")) (re.+ (str.to_re "mmm"))) (re.++ (re.+ (re.union (str.to_re "nnn") (str.to_re "o"))) (re.++ (re.+ (re.union (str.to_re "p") (str.to_re "qq"))) (re.++ (re.* (re.union (str.to_re "r") (str.to_re "s"))) (re.++ (re.+ (re.union (str.to_re "ttt") (str.to_re "u"))) (re.++ (re.* (re.* (str.to_re "vvv"))) (re.++ (re.union (re.* (str.to_re "www")) (re.* (str.to_re "xxx"))) (re.++ (re.union (re.* (str.to_re "yy")) (re.* (str.to_re "zz"))) (re.++ (re.union (re.* (str.to_re "A")) (re.* (str.to_re "BB"))) (re.++ (re.union (re.+ (str.to_re "CC")) (re.+ (str.to_re "DD"))) (re.++ (re.* (re.* (str.to_re "EE"))) (re.++ (re.* (re.union (str.to_re "F") (str.to_re "GGG"))) (re.++ (re.+ (re.+ (str.to_re "H"))) (re.++ (re.union (re.union (str.to_re "III") (str.to_re "JJJ")) (re.union (str.to_re "K") (str.to_re "L"))) (re.++ (re.union (re.* (str.to_re "MM")) (re.* (str.to_re "NNN"))) (re.++ (re.* (re.union (str.to_re "OOO") (str.to_re "P"))) (re.++ (re.* (re.union (str.to_re "Q") (str.to_re "RR"))) (re.++ (re.+ (re.* (str.to_re "S"))) (re.++ (re.* (re.* (str.to_re "TTT"))) (re.++ (re.* (re.+ (str.to_re "UU"))) (re.+ (re.* (str.to_re "VVV")))))))))))))))))))))))))))))))))))))))))
(check-sat)